p wcnf 3000 300 1
1 1 0
1 2 0
1 3 0
1 4 0
1 5 0
1 6 0
1 7 0
1 8 0
1 9 0
1 10 0
1 11 0
1 12 0
1 13 0
1 14 0
1 15 0
1 1 1 1 1 1 1 1 1 1 1 1 1 1 1 0
1 1 2 2 2 2 2 2 2 2 2 2 2 2 2 0
1 2 2 2 2 2 2 2 2 2 2 2 2 3 3 0
1 3 3 3 3 3 3 3 3 3 3 3 3 3 3 0
1 3 3 3 3 3 3 3 3 3 3 3 3 3 3 0
1 3 3 4 4 4 4 4 4 4 4 4 4 4 4 0
1 4 4 4 4 4 4 4 4 4 4 4 5 5 5 0
1 5 5 5 5 5 5 5 5 5 5 5 5 5 5 0
1 5 5 5 5 5 5 5 5 5 5 5 5 5 5 0
1 5 5 5 5 5 5 5 6 6 6 6 6 6 6 0
1 6 6 6 6 6 6 6 6 6 6 6 6 6 6 0
1 6 6 6 6 7 7 7 7 7 7 7 7 7 7 0
1 7 7 7 7 7 7 7 7 7 7 7 7 7 7 0
1 7 7 7 8 8 8 8 8 8 8 8 8 8 8 0
1 8 8 8 8 8 8 8 8 8 8 8 8 8 8 0
1 8 8 8 8 8 9 9 9 9 9 9 9 9 9 0
1 9 9 9 9 9 9 9 9 9 9 9 9 9 9 0
1 10 10 10 10 10 10 10 10 10 10 10 10 10 10 0
1 10 10 10 10 10 10 10 10 10 10 10 10 10 10 0
1 10 10 10 10 10 10 11 11 11 11 11 11 11 11 0
1 11 11 11 11 11 11 11 11 11 11 11 11 11 11 0
1 11 11 11 12 12 12 12 12 12 12 12 12 12 12 0
1 12 12 12 12 12 12 12 12 13 13 13 13 13 13 0
1 13 13 13 13 13 13 13 13 13 13 13 13 13 13 0
1 13 13 13 13 13 13 13 13 13 13 14 14 14 14 0
1 14 14 14 14 14 14 14 14 14 14 14 14 14 14 0
1 14 14 14 14 14 14 14 14 14 14 14 14 14 14 0
1 15 15 15 15 15 15 15 15 15 15 15 15 15 15 0
1 15 15 15 15 15 15 15 15 15 15 15 15 15 15 0
1 16 16 16 16 16 16 16 16 16 16 16 16 16 16 0
1 16 16 16 16 16 17 17 17 17 17 17 17 17 17 0
1 17 17 17 17 17 17 17 17 17 17 17 17 17 17 0
1 17 17 17 17 17 17 17 18 18 18 18 18 18 18 0
1 18 18 18 18 18 18 18 18 18 18 18 18 18 18 0
1 18 18 18 18 18 18 18 18 18 18 18 18 18 18 0
1 18 19 19 19 19 19 19 19 19 19 19 19 19 19 0
1 19 19 19 19 19 19 19 19 19 19 19 19 19 19 0
1 20 20 20 20 20 20 20 20 20 20 20 20 20 20 0
1 20 20 20 20 20 20 20 20 20 20 20 20 20 20 0
1 20 20 20 20 20 20 20 20 20 20 21 21 21 21 0
1 21 21 21 21 21 21 21 21 21 21 21 21 21 21 0
1 21 21 21 21 22 22 22 22 22 22 22 22 22 22 0
1 22 22 22 22 22 22 22 22 22 22 22 22 22 22 0
1 22 22 22 22 22 23 23 23 23 23 23 23 23 23 0
1 23 23 23 23 23 23 23 23 23 23 23 23 23 23 0
1 24 24 24 24 24 24 24 24 24 24 24 24 24 24 0
1 24 24 24 24 24 24 24 25 25 25 25 25 25 25 0
1 25 25 25 25 25 25 25 25 25 25 25 25 25 25 0
1 25 25 25 25 25 25 26 26 26 26 26 26 26 26 0
1 26 26 26 26 26 26 26 26 26 26 26 26 26 26 0
1 26 26 26 26 26 26 26 27 27 27 27 27 27 27 0
1 27 27 27 27 27 27 27 27 27 27 27 27 27 27 0
1 27 27 27 27 27 27 27 27 27 27 27 27 28 28 0
1 28 28 28 28 28 28 28 28 28 28 28 28 28 28 0
1 28 28 28 28 28 28 29 29 29 29 29 29 29 29 0
1 29 29 29 29 29 29 29 29 29 29 29 29 29 29 0
1 30 30 30 30 30 30 30 30 30 30 30 30 30 30 0
1 30 30 30 30 30 30 30 30 30 30 30 31 31 31 0
1 31 31 31 31 31 31 31 31 31 31 31 31 31 31 0
1 31 31 31 31 31 31 31 31 31 31 31 31 32 32 0
1 32 32 32 32 32 32 32 32 32 32 32 32 32 32 0
1 32 32 32 32 32 32 32 32 32 32 32 32 32 32 0
1 32 32 32 32 32 32 33 33 33 33 33 33 33 33 0
1 33 33 33 33 33 33 33 33 33 33 33 33 33 33 0
1 33 33 33 33 33 33 34 34 34 34 34 34 34 34 0
1 34 34 34 34 34 34 34 34 34 34 34 34 34 34 0
1 34 34 34 34 34 34 34 34 35 35 35 35 35 35 0
1 35 35 35 35 35 35 35 35 35 35 35 35 35 35 0
1 35 35 35 35 35 35 35 35 35 35 35 35 35 35 0
1 35 36 36 36 36 36 36 36 36 36 36 36 36 36 0
1 36 36 36 36 36 36 36 36 36 36 36 36 36 36 0
1 36 36 36 36 36 37 37 37 37 37 37 37 37 37 0
1 37 37 37 37 37 37 37 37 37 37 37 37 37 37 0
1 37 37 37 38 38 38 38 38 38 38 38 38 38 38 0
1 38 38 38 38 38 38 38 38 38 38 38 38 38 38 0
1 38 38 39 39 39 39 39 39 39 39 39 39 39 39 0
1 39 39 39 39 39 39 39 39 39 39 39 39 39 39 0
1 39 39 39 39 40 40 40 40 40 40 40 40 40 40 0
1 40 40 40 40 40 40 40 40 40 40 40 40 40 40 0
1 40 41 41 41 41 41 41 41 41 41 41 41 41 41 0
1 41 41 41 41 41 41 41 41 41 41 41 41 41 41 0
1 41 41 41 41 41 41 41 41 41 41 41 41 42 42 0
1 42 42 42 42 42 42 42 42 42 42 42 42 42 42 0
1 42 42 42 42 42 42 42 42 42 42 42 42 42 42 0
1 42 43 43 43 43 43 43 43 43 43 43 43 43 43 0
1 43 43 43 43 43 43 43 43 44 44 44 44 44 44 0
1 44 44 44 44 44 44 44 44 44 44 44 44 44 44 0
1 44 44 44 44 44 45 45 45 45 45 45 45 45 45 0
1 45 45 45 45 45 45 45 45 45 45 45 45 45 45 0
1 45 45 46 46 46 46 46 46 46 46 46 46 46 46 0
1 46 46 46 46 46 46 46 46 46 46 47 47 47 47 0
1 47 47 47 47 47 47 47 47 47 47 47 47 47 47 0
1 47 47 47 47 47 47 47 47 47 47 47 47 47 48 0
1 48 48 48 48 48 48 48 48 48 48 48 48 48 48 0
1 48 48 48 48 48 48 48 48 48 48 49 49 49 49 0
1 49 49 49 49 49 49 49 49 49 49 49 49 49 49 0
1 49 49 49 49 49 49 49 49 49 49 49 49 50 50 0
1 50 50 50 50 50 50 50 50 50 50 50 50 50 50 0
1 50 50 50 50 50 51 51 51 51 51 51 51 51 51 0
1 51 51 51 51 51 51 51 51 51 51 51 51 51 51 0
1 51 51 52 52 52 52 52 52 52 52 52 52 52 52 0
1 52 52 52 52 52 52 52 52 52 52 52 52 52 52 0
1 52 52 52 53 53 53 53 53 53 53 53 53 53 53 0
1 53 53 53 53 53 53 53 53 53 53 53 53 53 53 0
1 53 53 53 53 53 54 54 54 54 54 54 54 54 54 0
1 54 54 54 54 54 54 54 54 54 54 54 54 54 54 0
1 54 55 55 55 55 55 55 55 55 55 55 55 55 55 0
1 55 55 55 55 55 55 55 55 55 55 55 55 55 55 0
1 55 55 55 55 56 56 56 56 56 56 56 56 56 56 0
1 56 56 56 56 56 56 56 56 56 56 56 56 56 56 0
1 56 56 56 56 57 57 57 57 57 57 57 57 57 57 0
1 57 57 57 57 57 57 57 57 57 57 57 57 57 57 0
1 57 57 57 57 57 57 57 57 58 58 58 58 58 58 0
1 58 58 58 58 58 58 58 58 58 58 58 58 58 58 0
1 58 58 58 58 58 58 58 58 58 59 59 59 59 59 0
1 59 59 59 59 59 59 59 59 59 59 59 59 59 59 0
1 59 59 59 59 59 59 59 59 59 59 59 60 60 60 0
1 60 60 60 60 60 60 60 60 60 60 60 60 60 60 0
1 60 60 60 60 60 60 60 60 60 60 60 60 60 60 0
1 61 61 61 61 61 61 61 61 61 61 61 61 61 61 0
1 61 61 61 61 61 61 61 61 61 61 61 61 62 62 0
1 62 62 62 62 62 62 62 62 62 62 62 62 62 62 0
1 62 62 62 62 62 62 63 63 63 63 63 63 63 63 0
1 63 63 63 63 63 63 63 63 63 63 63 63 64 64 0
1 64 64 64 64 64 64 64 64 64 64 64 64 64 64 0
1 64 64 64 64 64 64 64 64 64 64 65 65 65 65 0
1 65 65 65 65 65 65 65 65 65 65 65 65 65 65 0
1 65 65 65 65 65 65 65 65 65 65 65 65 66 66 0
1 66 66 66 66 66 66 66 66 66 66 66 66 66 66 0
1 66 66 66 66 66 66 66 67 67 67 67 67 67 67 0
1 67 67 67 67 67 67 67 67 67 67 67 67 67 67 0
1 67 67 67 67 67 67 67 67 68 68 68 68 68 68 0
1 68 68 68 68 68 68 68 68 68 68 68 68 68 68 0
1 68 68 68 68 68 69 69 69 69 69 69 69 69 69 0
1 69 69 69 69 69 69 69 69 69 69 69 69 69 70 0
1 70 70 70 70 70 70 70 70 70 70 70 70 70 70 0
1 70 70 70 70 70 70 70 70 70 70 70 70 70 70 0
1 70 70 70 70 70 71 71 71 71 71 71 71 71 71 0
1 71 71 71 71 71 71 71 71 71 71 71 72 72 72 0
1 72 72 72 72 72 72 72 72 72 72 72 72 72 72 0
1 72 72 72 72 72 72 72 72 72 73 73 73 73 73 0
1 73 73 73 73 73 73 73 73 73 73 73 73 73 73 0
1 73 73 73 73 73 73 73 73 73 73 73 73 73 74 0
1 74 74 74 74 74 74 74 74 74 74 74 74 74 74 0
1 74 74 74 74 74 74 74 74 74 74 74 74 74 74 0
1 74 74 74 74 75 75 75 75 75 75 75 75 75 75 0
1 75 75 75 75 75 75 75 75 75 75 75 75 75 75 0
1 75 75 75 75 75 75 75 75 75 75 76 76 76 76 0
1 76 76 76 76 76 76 76 76 76 76 76 76 76 76 0
1 76 76 76 76 76 76 76 76 76 76 76 77 77 77 0
1 77 77 77 77 77 77 77 77 77 77 77 77 77 77 0
1 77 77 77 77 77 77 77 78 78 78 78 78 78 78 0
1 78 78 78 78 78 78 78 78 78 78 78 78 78 78 0
1 78 78 78 78 78 78 78 78 78 78 79 79 79 79 0
1 79 79 79 79 79 79 79 79 79 79 79 79 79 79 0
1 79 79 79 79 79 79 79 79 79 79 80 80 80 80 0
1 80 80 80 80 80 80 80 80 80 80 80 80 80 80 0
1 80 80 80 80 80 80 80 80 80 80 80 80 80 80 0
1 80 80 80 81 81 81 81 81 81 81 81 81 81 81 0
1 81 81 81 81 81 81 81 81 81 81 81 81 81 81 0
1 81 81 81 81 81 81 81 81 81 81 81 81 81 82 0
1 82 82 82 82 82 82 82 82 82 82 82 82 82 82 0
1 82 82 82 82 82 82 82 82 82 82 82 83 83 83 0
1 83 83 83 83 83 83 83 83 83 83 83 83 83 83 0
1 83 83 83 83 83 83 83 83 83 83 83 84 84 84 0
1 84 84 84 84 84 84 84 84 84 84 84 84 84 84 0
1 84 84 84 85 85 85 85 85 85 85 85 85 85 85 0
1 85 85 85 85 85 85 85 85 85 85 85 85 85 85 0
1 85 85 85 85 85 85 85 85 86 86 86 86 86 86 0
1 86 86 86 86 86 86 86 86 86 86 86 86 86 86 0
1 86 86 86 86 86 86 86 86 86 86 86 86 86 86 0
1 86 86 87 87 87 87 87 87 87 87 87 87 87 87 0
1 87 87 87 87 87 87 87 87 87 87 87 87 87 88 0
1 88 88 88 88 88 88 88 88 88 88 88 88 88 88 0
1 88 88 88 88 88 88 88 88 88 88 88 88 88 88 0
1 88 88 88 88 89 89 89 89 89 89 89 89 89 89 0
1 89 89 89 89 89 89 89 89 89 89 89 89 89 89 0
1 90 90 90 90 90 90 90 90 90 90 90 90 90 90 0
1 90 90 90 90 90 90 90 90 90 90 90 90 90 90 0
1 90 90 90 90 90 91 91 91 91 91 91 91 91 91 0
1 91 91 91 91 91 91 91 91 91 91 91 91 91 91 0
1 91 91 91 91 91 91 91 91 91 92 92 92 92 92 0
1 92 92 92 92 92 92 92 92 92 92 92 92 92 92 0
1 92 92 92 92 93 93 93 93 93 93 93 93 93 93 0
1 93 93 93 93 93 93 93 93 93 93 93 93 93 93 0
1 93 93 93 93 94 94 94 94 94 94 94 94 94 94 0
1 94 94 94 94 94 94 94 94 94 94 94 94 94 94 0
1 95 95 95 95 95 95 95 95 95 95 95 95 95 95 0
1 95 95 95 95 95 95 95 95 95 95 95 95 96 96 0
1 96 96 96 96 96 96 96 96 96 96 96 96 96 96 0
1 96 96 96 96 96 96 96 96 96 97 97 97 97 97 0
1 97 97 97 97 97 97 97 97 97 97 97 97 97 97 0
1 97 97 97 97 97 97 97 97 97 97 97 97 98 98 0
1 98 98 98 98 98 98 98 98 98 98 98 98 98 98 0
1 98 98 98 98 98 98 98 98 98 98 98 98 98 99 0
1 99 99 99 99 99 99 99 99 99 99 99 99 99 99 0
1 99 99 99 99 99 99 99 99 99 99 99 99 99 99 0
1 99 99 99 99 99 99 100 100 100 100 100 100 100 100 0
1 100 100 100 100 100 100 100 100 100 100 100 100 100 100 0
1  0
1 81 97 254 362 457 577 599 619 623 667 743 746 764 844 0
1 1178 1186 1220 1280 1327 1378 1380 1469 1503 1586 1610 1626 1707 1769 0
1 1846 1863 2086 2133 2302 2332 2405 2460 2590 2635 2673 2683 2688 2718 0
1 2783 2990 0
1  0
1 122 166 182 223 249 262 263 286 322 337 399 410 423 581 0
1 667 669 722 757 814 902 926 962 993 1016 1018 1029 1043 1068 0
1 1150 1217 1287 1303 1335 1348 1354 1485 1505 1520 1652 1684 1692 1788 0
1 1906 2080 2087 2092 2111 2166 2174 2185 2238 2362 2405 2498 2591 2730 0
1 2896 2944 2952 2971 0
1  0
1 38 118 204 207 314 412 426 775 785 840 856 999 1016 1090 0
1 1214 1362 1387 1410 1428 1566 1582 1592 1722 1801 1961 1986 2118 2138 0
1 2189 2336 2538 2555 2601 2658 2849 2901 2944 2954 0
1  0
1 81 142 173 177 216 274 324 351 410 437 509 534 551 578 0
1 586 656 693 756 812 957 968 1015 1031 1037 1103 1144 1197 1217 0
1 1341 1443 1471 1527 1531 1561 1745 1803 1843 1880 1960 1990 2134 2153 0
1 2228 2234 2246 2277 2293 2403 2486 2573 2590 2689 2829 2878 0
1  0
1 34 71 95 118 184 186 206 225 251 253 270 312 382 466 0
1 473 615 656 686 692 715 716 726 731 774 793 845 866 878 0
1 918 980 1017 1046 1155 1186 1329 1389 1416 1454 1500 1520 1565 1609 0
1 1685 1708 1893 1914 1984 2141 2144 2235 2308 2325 2379 2390 2446 2450 0
1 2471 2514 2556 2585 2682 2760 2896 2902 2943 0
1  0
1 69 120 159 236 456 481 504 616 629 639 650 722 747 766 0
1 780 825 1116 1122 1229 1281 1290 1296 1552 1587 1589 1710 1846 1954 0
1 2019 2027 2069 2142 2151 2179 2199 2232 2255 2322 2326 2438 2458 2554 0
1 2685 2707 2801 2832 2938 2940 0
1  0
1 61 199 238 257 274 316 444 618 628 720 744 777 819 898 0
1 1053 1060 1118 1207 1214 1239 1294 1302 1311 1313 1354 1553 1660 1695 0
1 1750 1755 1811 1862 1922 1933 2082 2088 2234 2324 2343 2353 2370 2479 0
1 2597 2640 2728 2746 2757 2940 2954 2958 0
1  0
1 40 88 163 247 253 312 327 331 345 356 414 429 468 482 0
1 613 628 674 735 748 749 797 801 841 843 957 1037 1070 1129 0
1 1183 1188 1192 1209 1244 1334 1335 1376 1413 1480 1519 1551 1583 1616 0
1 1890 1940 1942 1968 1969 1984 1994 2043 2061 2063 2098 2218 2295 2342 0
1 2474 2541 2561 2648 2696 2723 2882 2932 2941 0
1  0
1 70 130 159 216 224 375 464 474 521 526 622 632 844 852 0
1 1016 1105 1118 1131 1410 1596 1602 1629 1653 1835 1861 1948 1977 1996 0
1 2077 2088 2101 2169 2211 2239 2304 2333 2345 2398 2482 2510 2569 2652 0
1 2797 2806 2822 2854 2882 2929 2942 0
1  0
1 90 120 170 396 413 429 445 563 573 586 606 614 636 667 0
1 755 799 815 841 843 917 963 1007 1050 1054 1119 1206 1279 1356 0
1 1413 1422 1503 1542 1555 1560 1567 1583 1598 1675 1737 1800 1875 1882 0
1 1928 1936 1952 1962 1990 2016 2077 2112 2270 2302 2508 2574 2584 2610 0
1 2855 2888 2941 2951 0
1  0
1 50 63 68 215 216 406 432 519 531 612 639 655 894 1040 0
1 1063 1093 1129 1134 1138 1334 1412 1440 1447 1582 1627 1649 1658 1706 0
1 1776 1875 1878 1909 1982 1999 2007 2029 2058 2113 2179 2232 2240 2269 0
1 2322 2458 2466 2529 2543 2631 2658 2863 2954 0
1  0
1 62 123 189 238 315 364 395 472 524 573 616 644 658 679 0
1 776 840 921 955 1026 1047 1058 1081 1087 1128 1168 1177 1218 1245 0
1 1262 1267 1309 1385 1645 1673 1686 1718 1771 1793 1807 1832 1849 1897 0
1 1920 1960 2014 2023 2060 2217 2238 2328 2344 2352 2392 2406 2410 2456 0
1 2488 2499 2549 2637 2724 2777 2854 0
1  0
1 40 42 81 171 184 215 237 281 409 473 525 532 547 560 0
1 643 693 733 839 917 994 995 999 1050 1068 1116 1204 1226 1292 0
1 1327 1386 1428 1584 1655 1715 1774 1807 1828 1897 1960 1992 2018 2055 0
1 2082 2094 2265 2365 2399 2419 2434 2612 2616 2707 2710 2744 2813 2849 0
1 2899 2943 0
1  0
1 147 150 198 230 259 389 397 417 422 473 494 551 578 698 0
1 706 723 883 918 920 929 959 1019 1109 1114 1151 1153 1219 1232 0
1 1334 1380 1415 1647 1676 1681 1769 1804 1853 1950 1951 1963 2089 2160 0
1 2241 2301 2359 2465 2488 2511 2556 2576 2676 2924 0
1  0
1 23 46 66 71 128 185 215 223 239 279 324 336 337 342 0
1 582 730 745 795 834 887 892 1001 1065 1074 1151 1179 1203 1218 0
1 1271 1398 1442 1570 1592 1773 1782 1888 1917 1941 1972 1993 2079 2082 0
1 2201 2261 2363 2410 2442 2448 2502 2634 2648 2825 2854 2883 2903 2909 0
1  0
1  0
1 24 124 127 220 224 250 275 291 456 504 531 535 591 612 0
1 735 809 966 1020 1061 1093 1177 1179 1244 1280 1360 1379 1390 1440 0
1 1492 1521 1522 1524 1663 1692 1736 1768 1855 1935 2007 2032 2041 2082 0
1 2147 2242 2300 2331 2493 2519 2642 2652 2672 2687 2709 2718 2757 2826 0
1  0
1  0
1 81 141 159 198 222 249 403 411 523 549 680 699 763 814 0
1 866 900 959 1055 1087 1098 1101 1154 1250 1304 1308 1318 1377 1380 0
1 1402 1467 1534 1562 1570 1774 1776 1831 1845 1944 1945 1982 2019 2050 0
1 2134 2162 2174 2298 2339 2392 2462 2502 2524 2594 2617 2796 2942 2990 0
1  0
1 104 111 126 159 161 190 260 292 363 423 429 510 528 655 0
1 754 766 793 803 954 965 984 985 1031 1115 1118 1148 1170 1208 0
1 1319 1332 1341 1382 1385 1441 1472 1526 1542 1585 1612 1671 1816 1830 0
1 1905 2038 2063 2066 2095 2110 2197 2208 2239 2272 2284 2295 2401 2447 0
1 2559 2646 2670 2797 2827 2884 2983 0
1  0
1 51 74 102 173 199 208 215 222 308 309 310 344 373 397 0
1 472 496 539 591 592 630 787 796 810 835 860 931 969 979 0
